sat
(:added-eqs                       7761
 :arith-eq-adapter                599
 :arith-bound-propagations-lp     746
 :arith-branch                    11
 :arith-conflicts                 2051
 :arith-cube-calls                4
 :arith-diseq                     3509
 :arith-fixed-eqs                 1481
 :arith-gcd-calls                 127
 :arith-gomory-cuts               6
 :arith-grobner-calls             427
 :arith-grobner-conflicts         273
 :arith-horner-calls              110
 :arith-horner-conflicts          5
 :arith-horner-cross-nested-forms 38685
 :arith-lower                     5246
 :arith-make-feasible             5047
 :arith-max-columns               523
 :arith-max-rows                  297
 :arith-nla-add-bounds            70
 :arith-nla-lemmas                1542
 :arith-nla-propagate-bounds      282
 :arith-nla-propagate-eq          4388
 :arith-nra-calls                 94
 :arith-offset-eqs                679
 :arith-patches                   127
 :arith-patches-success           110
 :arith-upper                     7830
 :binary-propagations             11299
 :cnf-encoding-aux-vars           6
 :conflicts                       385
 :decisions                       18952
 :del-clause                      2979
 :final-checks                    711
 :max-memory                      151.69
 :memory                          91.36
 :minimized-lits                  45
 :mk-bool-var                     6471
 :mk-clause                       4243
 :mk-clause-binary                1561
 :nlsat-conflicts                 7906
 :nlsat-decisions                 160
 :nlsat-irrational-assignments    1
 :nlsat-propagations              210150
 :nlsat-restarts                  2
 :nlsat-stages                    109846
 :num-allocs                      5424653647.00
 :num-checks                      1
 :propagations                    21154
 :restarts                        3
 :rlimit-count                    4206062
 :sat-backjumps                   501
 :sat-conflicts                   501
 :sat-decisions                   1950
 :sat-del-clause                  76514
 :sat-elim-bool-vars-res          14408
 :sat-elim-clauses                51
 :sat-elim-literals               1410
 :sat-minimized-lits              3361
 :sat-mk-clause-2ary              45079
 :sat-mk-clause-3ary              19397
 :sat-mk-clause-nary              122466
 :sat-mk-var                      30236
 :sat-probing-assigned            56
 :sat-propagations-2ary           358168
 :sat-propagations-nary           286149
 :sat-restarts                    63
 :sat-scc-elim-binary             159
 :sat-scc-elim-vars               34
 :sat-subs-resolution             1187
 :sat-subs-resolution-dyn         186
 :sat-subsumed                    15920
 :sat-units                       64
 :solve-eqs-elim-vars             23
 :solve-eqs-steps                 604
 :time                            2.86
 :total-time                      2.87)
